c turning on binary mode checking
c parsing input formula with 202048 variables and 780990 clauses
c finished parsing, read 2271444 bytes from proof file
c detected empty clause; start verification via backward checking
c 8185 of 780990 clauses in core                            
c 3027 of 90385 lemmas in core using 120427 resolution steps
c 0 RAT lemmas in core; 848 redundant literals in core lemmas
s VERIFIED
c verification time: 1.236 seconds
